************************************************************************
file with basedata            : mm43_.bas
initial value random generator: 1654607668
************************************************************************
projects                      :  1
jobs (incl. supersource/sink ):  12
horizon                       :  83
RESOURCES
  - renewable                 :  2   R
  - nonrenewable              :  2   N
  - doubly constrained        :  0   D
************************************************************************
PROJECT INFORMATION:
pronr.  #jobs rel.date duedate tardcost  MPM-Time
    1     10      0       14        0       14
************************************************************************
PRECEDENCE RELATIONS:
jobnr.    #modes  #successors   successors
   0        1          3           1   2   3
   1        3          2           4   5
   2        3          1           8
   3        3          2           8  10
   4        3          1           7
   5        3          2           6  10
   6        3          2           8   9
   7        3          2           9  10
   8        3          1          11
   9        3          1          11
  10        3          1          11
  11        1          0        
************************************************************************
REQUESTS/DURATIONS:
jobnr. mode duration  R 1  R 2  R 3  R 4  E(W 1)  E(W 2)
------------------------------------------------------------------------
  0      1     0       0    0    0    0     0       0
  1      1     1       4    7   10    0    11      10
  2      1     2       8    3    0    4    22       8
  3      1     3       7    9    0    6    48      18
  4      1     1       7    8    8    0    15       8
  5      1     5       5    2    0    8    35      40
  6      1     3       6    9    0    8    45      24
  7      1     4      10    7    0    5    68      20
  8      1     3       6    9    0    9    45      27
  9      1     5       5    6    3    0    55      15
 10      1     3       5    8    0    7    39      21
 11      1     0       0    0    0    0     0       0
************************************************************************
RESOURCEAVAILABILITIES:
  R 1  R 2
   32   83
************************************************************************
RESOURCE LIMITS:
jobnr.  l(R 1)  u(R 1)  l(R 2)  u(R 2)
------------------------------------------------------------------------
  0        0       0       0       0
  1        6      11       5      10
  2        6      11       2       4
  3        9      16       3       6
  4        8      15       4       8
  5        4       7       4       8
  6        8      15       4       8
  7        9      17       3       5
  8        8      15       5       9
  9        6      11       2       3
 10        7      13       4       7
 11        0       0       0       0
************************************************************************
SCENARIOS:
------------------------------------------------------------------------
RESOURCE k = 1
s = 1: (0, 12, 27, 31, 12, 44, 34, 60, 50, 45, 32, 0)
s = 2: (0, 10, 21, 60, 10, 37, 33, 74, 54, 59, 61, 0)
s = 3: (0, 13, 23, 53, 17, 35, 58, 68, 47, 51, 48, 0)
s = 4: (0, 7, 15, 70, 23, 32, 68, 62, 60, 68, 42, 0)
s = 5: (0, 9, 21, 54, 16, 41, 32, 52, 48, 33, 26, 0)
s = 6: (0, 11, 13, 43, 19, 42, 37, 65, 62, 58, 27, 0)
s = 7: (0, 19, 23, 32, 15, 38, 73, 80, 39, 44, 24, 0)
s = 8: (0, 9, 17, 27, 16, 31, 42, 77, 36, 40, 35, 0)
s = 9: (0, 15, 24, 61, 10, 38, 37, 55, 26, 73, 34, 0)
s = 10: (0, 10, 15, 49, 9, 34, 33, 110, 46, 77, 25, 0)
s = 11: (0, 8, 30, 75, 14, 22, 66, 52, 33, 41, 49, 0)
s = 12: (0, 14, 25, 41, 12, 36, 27, 65, 38, 45, 28, 0)
s = 13: (0, 12, 27, 34, 16, 27, 51, 115, 57, 57, 36, 0)
s = 14: (0, 16, 13, 43, 21, 25, 54, 105, 47, 64, 35, 0)
s = 15: (0, 12, 22, 48, 15, 23, 64, 77, 66, 52, 45, 0)
s = 16: (0, 9, 15, 34, 10, 35, 40, 82, 31, 47, 27, 0)
s = 17: (0, 14, 14, 53, 21, 41, 27, 74, 36, 70, 31, 0)
s = 18: (0, 11, 16, 79, 10, 27, 34, 86, 45, 57, 27, 0)
s = 19: (0, 14, 21, 53, 16, 26, 32, 46, 54, 51, 32, 0)
s = 20: (0, 15, 24, 45, 26, 20, 45, 108, 50, 51, 29, 0)
s = 21: (0, 12, 36, 53, 13, 39, 50, 88, 44, 77, 45, 0)
s = 22: (0, 14, 23, 54, 14, 35, 30, 69, 38, 57, 28, 0)
s = 23: (0, 15, 19, 70, 22, 35, 43, 50, 30, 62, 29, 0)
s = 24: (0, 13, 32, 35, 19, 27, 32, 79, 37, 41, 39, 0)
s = 25: (0, 20, 23, 26, 15, 41, 47, 60, 46, 51, 25, 0)
s = 26: (0, 11, 18, 52, 12, 33, 39, 62, 32, 49, 37, 0)
s = 27: (0, 9, 33, 45, 20, 37, 46, 42, 37, 35, 38, 0)
s = 28: (0, 7, 21, 72, 11, 28, 56, 91, 40, 84, 45, 0)
s = 29: (0, 13, 13, 46, 14, 38, 37, 52, 38, 50, 35, 0)
s = 30: (0, 15, 16, 68, 18, 39, 59, 118, 54, 53, 38, 0)
s = 31: (0, 14, 18, 64, 16, 40, 54, 65, 36, 31, 23, 0)
s = 32: (0, 8, 20, 52, 12, 46, 28, 79, 36, 63, 50, 0)
s = 33: (0, 17, 27, 46, 12, 41, 50, 55, 54, 81, 47, 0)
s = 34: (0, 7, 31, 57, 18, 30, 40, 93, 54, 103, 34, 0)
s = 35: (0, 9, 14, 60, 14, 46, 54, 61, 33, 54, 41, 0)
s = 36: (0, 13, 18, 64, 22, 39, 52, 52, 53, 80, 29, 0)
s = 37: (0, 10, 24, 36, 12, 38, 70, 63, 75, 78, 42, 0)
s = 38: (0, 18, 19, 75, 24, 31, 34, 43, 54, 39, 28, 0)
s = 39: (0, 9, 25, 40, 22, 45, 42, 92, 35, 49, 28, 0)
s = 40: (0, 9, 28, 40, 15, 46, 47, 78, 55, 63, 45, 0)
s = 41: (0, 13, 23, 46, 14, 38, 48, 53, 45, 51, 41, 0)
s = 42: (0, 12, 19, 85, 15, 39, 44, 60, 29, 117, 40, 0)
s = 43: (0, 10, 27, 49, 12, 21, 79, 106, 70, 59, 28, 0)
s = 44: (0, 14, 28, 46, 17, 34, 58, 66, 42, 32, 30, 0)
s = 45: (0, 12, 15, 41, 17, 28, 36, 64, 38, 37, 55, 0)
s = 46: (0, 6, 25, 62, 14, 46, 31, 40, 49, 63, 51, 0)
s = 47: (0, 10, 25, 70, 14, 35, 34, 104, 42, 39, 32, 0)
s = 48: (0, 15, 25, 50, 16, 27, 29, 44, 43, 54, 52, 0)
s = 49: (0, 10, 18, 42, 23, 54, 34, 53, 44, 66, 43, 0)
s = 50: (0, 14, 18, 49, 16, 37, 32, 58, 48, 55, 35, 0)
s = 51: (0, 8, 36, 62, 12, 23, 34, 89, 53, 87, 40, 0)
s = 52: (0, 13, 22, 46, 10, 19, 49, 42, 71, 63, 34, 0)
s = 53: (0, 9, 16, 48, 16, 33, 44, 49, 38, 32, 46, 0)
s = 54: (0, 13, 28, 33, 11, 45, 56, 57, 58, 53, 32, 0)
s = 55: (0, 9, 22, 51, 20, 32, 49, 76, 44, 81, 45, 0)
s = 56: (0, 13, 23, 65, 19, 35, 47, 48, 44, 53, 54, 0)
s = 57: (0, 9, 20, 46, 12, 50, 32, 57, 36, 52, 38, 0)
s = 58: (0, 15, 16, 29, 13, 38, 49, 80, 44, 63, 26, 0)
s = 59: (0, 7, 12, 60, 16, 31, 33, 76, 35, 39, 65, 0)
s = 60: (0, 9, 19, 65, 14, 31, 57, 48, 50, 54, 60, 0)
s = 61: (0, 12, 19, 32, 9, 49, 34, 61, 40, 48, 26, 0)
s = 62: (0, 12, 16, 58, 18, 36, 33, 49, 42, 41, 25, 0)
s = 63: (0, 9, 21, 35, 17, 39, 51, 48, 43, 70, 68, 0)
s = 64: (0, 10, 17, 57, 14, 32, 34, 90, 31, 39, 44, 0)
s = 65: (0, 7, 27, 35, 19, 42, 43, 68, 38, 48, 37, 0)
s = 66: (0, 10, 28, 40, 13, 24, 30, 43, 29, 45, 40, 0)
s = 67: (0, 10, 23, 52, 9, 38, 32, 64, 63, 47, 40, 0)
s = 68: (0, 10, 18, 75, 13, 33, 30, 63, 66, 64, 43, 0)
s = 69: (0, 9, 29, 60, 17, 42, 51, 52, 56, 38, 62, 0)
s = 70: (0, 9, 24, 42, 12, 43, 46, 62, 67, 61, 55, 0)
s = 71: (0, 8, 24, 33, 10, 55, 58, 46, 36, 55, 26, 0)
s = 72: (0, 10, 24, 60, 21, 33, 73, 60, 38, 62, 61, 0)
s = 73: (0, 10, 18, 32, 17, 28, 44, 91, 42, 86, 60, 0)
s = 74: (0, 15, 23, 69, 13, 33, 65, 78, 55, 51, 37, 0)
s = 75: (0, 10, 21, 58, 11, 35, 44, 92, 52, 60, 52, 0)
s = 76: (0, 12, 18, 40, 17, 54, 31, 55, 37, 98, 35, 0)
s = 77: (0, 8, 17, 71, 12, 44, 45, 89, 44, 47, 49, 0)
s = 78: (0, 10, 25, 57, 19, 27, 29, 82, 49, 65, 42, 0)
s = 79: (0, 8, 18, 33, 17, 36, 44, 70, 50, 32, 31, 0)
s = 80: (0, 10, 18, 26, 18, 51, 61, 57, 51, 65, 25, 0)
s = 81: (0, 17, 16, 47, 13, 28, 50, 49, 82, 45, 31, 0)
s = 82: (0, 12, 15, 76, 22, 32, 32, 70, 56, 52, 44, 0)
s = 83: (0, 11, 18, 45, 11, 22, 26, 97, 27, 74, 33, 0)
s = 84: (0, 11, 34, 42, 14, 30, 33, 75, 41, 54, 34, 0)
s = 85: (0, 7, 21, 68, 13, 36, 35, 42, 34, 32, 36, 0)
s = 86: (0, 8, 20, 46, 23, 34, 37, 95, 61, 49, 53, 0)
s = 87: (0, 9, 14, 47, 15, 28, 49, 47, 41, 54, 60, 0)
s = 88: (0, 10, 14, 43, 15, 43, 44, 99, 51, 41, 32, 0)
s = 89: (0, 7, 31, 60, 15, 28, 40, 83, 39, 50, 24, 0)
s = 90: (0, 13, 26, 50, 14, 36, 41, 70, 34, 63, 33, 0)
s = 91: (0, 19, 19, 62, 11, 50, 52, 59, 38, 32, 29, 0)
s = 92: (0, 7, 27, 54, 11, 37, 39, 102, 67, 41, 26, 0)
s = 93: (0, 9, 31, 36, 13, 24, 59, 82, 51, 57, 33, 0)
s = 94: (0, 13, 22, 47, 18, 22, 56, 85, 30, 55, 31, 0)
s = 95: (0, 10, 25, 64, 9, 44, 40, 123, 47, 40, 48, 0)
s = 96: (0, 14, 24, 52, 11, 34, 40, 48, 27, 48, 45, 0)
s = 97: (0, 12, 21, 66, 9, 23, 47, 52, 59, 70, 44, 0)
s = 98: (0, 10, 35, 37, 15, 56, 41, 76, 50, 45, 58, 0)
s = 99: (0, 18, 29, 43, 21, 34, 29, 90, 48, 52, 45, 0)
s = 100: (0, 10, 24, 51, 17, 39, 35, 63, 34, 35, 31, 0)
s = 101: (0, 13, 28, 56, 17, 40, 65, 86, 37, 59, 32, 0)
s = 102: (0, 11, 25, 49, 14, 39, 43, 39, 36, 68, 39, 0)
s = 103: (0, 9, 26, 57, 9, 20, 61, 54, 50, 53, 28, 0)
s = 104: (0, 16, 25, 63, 19, 43, 57, 76, 72, 79, 29, 0)
s = 105: (0, 8, 19, 75, 12, 39, 47, 57, 62, 36, 35, 0)
s = 106: (0, 13, 24, 72, 12, 48, 62, 64, 45, 36, 30, 0)
s = 107: (0, 12, 22, 62, 23, 44, 58, 53, 68, 38, 22, 0)
s = 108: (0, 10, 16, 27, 21, 49, 30, 59, 46, 65, 21, 0)
s = 109: (0, 7, 26, 40, 11, 47, 36, 71, 51, 56, 38, 0)
s = 110: (0, 11, 20, 48, 19, 32, 56, 55, 59, 46, 35, 0)
s = 111: (0, 12, 17, 74, 17, 39, 55, 119, 59, 35, 48, 0)
s = 112: (0, 13, 27, 41, 16, 38, 32, 57, 46, 69, 29, 0)
s = 113: (0, 11, 17, 44, 22, 24, 42, 67, 51, 57, 36, 0)
s = 114: (0, 10, 14, 60, 14, 25, 56, 87, 49, 62, 23, 0)
s = 115: (0, 12, 27, 72, 21, 31, 26, 65, 36, 54, 48, 0)
s = 116: (0, 10, 31, 66, 9, 62, 27, 41, 34, 54, 34, 0)
s = 117: (0, 10, 13, 37, 19, 31, 30, 42, 41, 71, 57, 0)
s = 118: (0, 11, 24, 49, 12, 44, 42, 79, 26, 86, 31, 0)
s = 119: (0, 14, 38, 42, 14, 26, 61, 66, 27, 50, 34, 0)
s = 120: (0, 7, 19, 70, 16, 27, 48, 37, 39, 88, 27, 0)
s = 121: (0, 15, 25, 64, 13, 41, 64, 64, 53, 73, 26, 0)
s = 122: (0, 12, 21, 55, 17, 28, 48, 54, 41, 63, 29, 0)
s = 123: (0, 16, 27, 33, 11, 34, 35, 81, 32, 84, 41, 0)
s = 124: (0, 17, 28, 34, 17, 33, 30, 78, 46, 39, 31, 0)
s = 125: (0, 16, 17, 41, 31, 31, 39, 58, 29, 58, 37, 0)
s = 126: (0, 17, 23, 58, 11, 35, 42, 62, 41, 82, 29, 0)
s = 127: (0, 6, 37, 37, 14, 38, 55, 96, 38, 49, 49, 0)
s = 128: (0, 9, 16, 43, 15, 25, 53, 54, 68, 34, 37, 0)
s = 129: (0, 14, 34, 48, 24, 30, 49, 86, 35, 50, 43, 0)
s = 130: (0, 9, 20, 27, 11, 30, 53, 56, 63, 54, 36, 0)
s = 131: (0, 9, 19, 27, 19, 56, 46, 58, 36, 59, 42, 0)
s = 132: (0, 8, 16, 67, 10, 37, 65, 89, 56, 86, 39, 0)
s = 133: (0, 9, 20, 63, 16, 34, 24, 98, 62, 43, 33, 0)
s = 134: (0, 15, 19, 50, 12, 32, 49, 37, 53, 33, 32, 0)
s = 135: (0, 10, 23, 36, 18, 41, 32, 91, 42, 59, 33, 0)
s = 136: (0, 14, 14, 50, 15, 29, 54, 75, 39, 60, 23, 0)
s = 137: (0, 8, 26, 29, 15, 42, 31, 65, 36, 69, 48, 0)
s = 138: (0, 11, 18, 54, 16, 38, 70, 44, 36, 58, 26, 0)
s = 139: (0, 10, 18, 45, 17, 21, 35, 73, 31, 64, 41, 0)
s = 140: (0, 12, 17, 32, 18, 21, 36, 50, 33, 65, 41, 0)
s = 141: (0, 20, 30, 79, 10, 38, 30, 70, 28, 35, 27, 0)
s = 142: (0, 16, 18, 53, 10, 60, 36, 53, 34, 35, 32, 0)
s = 143: (0, 10, 27, 63, 11, 41, 65, 86, 64, 56, 30, 0)
s = 144: (0, 9, 25, 56, 10, 39, 53, 104, 35, 68, 49, 0)
s = 145: (0, 8, 18, 28, 13, 56, 36, 37, 69, 41, 57, 0)
s = 146: (0, 9, 21, 36, 18, 41, 44, 77, 36, 41, 67, 0)
s = 147: (0, 11, 14, 37, 16, 22, 40, 71, 52, 94, 29, 0)
s = 148: (0, 16, 28, 64, 9, 33, 43, 71, 53, 45, 28, 0)
s = 149: (0, 9, 24, 45, 12, 39, 39, 57, 41, 36, 54, 0)
s = 150: (0, 9, 16, 38, 19, 29, 41, 67, 34, 43, 44, 0)
s = 151: (0, 13, 24, 39, 12, 40, 46, 55, 49, 35, 26, 0)
s = 152: (0, 7, 20, 61, 10, 25, 62, 83, 25, 65, 33, 0)
s = 153: (0, 15, 16, 51, 9, 30, 26, 46, 39, 63, 27, 0)
s = 154: (0, 9, 24, 99, 18, 23, 50, 56, 45, 72, 37, 0)
s = 155: (0, 14, 26, 49, 17, 21, 50, 45, 65, 63, 39, 0)
s = 156: (0, 15, 33, 41, 11, 49, 31, 77, 46, 35, 41, 0)
s = 157: (0, 15, 16, 67, 13, 53, 52, 83, 23, 69, 40, 0)
s = 158: (0, 8, 17, 41, 18, 33, 49, 50, 49, 60, 48, 0)
s = 159: (0, 9, 22, 49, 13, 28, 48, 116, 32, 47, 32, 0)
s = 160: (0, 9, 32, 63, 12, 49, 43, 81, 32, 42, 29, 0)
s = 161: (0, 14, 18, 47, 16, 28, 39, 95, 42, 51, 29, 0)
s = 162: (0, 10, 24, 58, 19, 43, 32, 43, 71, 42, 37, 0)
s = 163: (0, 10, 17, 36, 11, 44, 41, 39, 53, 33, 42, 0)
s = 164: (0, 7, 15, 39, 17, 25, 82, 98, 39, 71, 36, 0)
s = 165: (0, 11, 21, 60, 28, 44, 37, 84, 27, 49, 45, 0)
s = 166: (0, 14, 18, 39, 18, 41, 43, 59, 67, 52, 40, 0)
s = 167: (0, 10, 15, 52, 14, 36, 31, 82, 57, 45, 32, 0)
s = 168: (0, 16, 21, 57, 18, 34, 40, 54, 49, 41, 39, 0)
s = 169: (0, 10, 17, 38, 20, 31, 43, 81, 33, 49, 43, 0)
s = 170: (0, 10, 18, 92, 12, 33, 35, 85, 44, 53, 34, 0)
s = 171: (0, 16, 29, 66, 15, 39, 34, 63, 48, 43, 34, 0)
s = 172: (0, 10, 29, 77, 13, 47, 36, 54, 36, 68, 54, 0)
s = 173: (0, 14, 26, 50, 10, 43, 31, 88, 47, 73, 54, 0)
s = 174: (0, 13, 20, 77, 14, 28, 45, 45, 34, 35, 25, 0)
s = 175: (0, 9, 16, 40, 15, 43, 36, 76, 44, 52, 38, 0)
s = 176: (0, 21, 20, 46, 15, 42, 34, 108, 57, 77, 65, 0)
s = 177: (0, 16, 28, 52, 12, 35, 30, 47, 56, 65, 32, 0)
s = 178: (0, 11, 15, 51, 16, 25, 31, 53, 46, 79, 49, 0)
s = 179: (0, 7, 26, 70, 8, 36, 65, 51, 65, 58, 42, 0)
s = 180: (0, 15, 40, 50, 17, 34, 26, 46, 25, 50, 45, 0)
s = 181: (0, 10, 27, 57, 16, 31, 50, 38, 53, 64, 43, 0)
s = 182: (0, 10, 25, 34, 14, 45, 49, 95, 53, 62, 41, 0)
s = 183: (0, 7, 23, 51, 14, 45, 65, 48, 28, 64, 37, 0)
s = 184: (0, 8, 22, 41, 24, 34, 52, 89, 27, 78, 50, 0)
s = 185: (0, 7, 27, 70, 17, 43, 37, 81, 33, 51, 45, 0)
s = 186: (0, 10, 19, 61, 19, 21, 56, 62, 37, 60, 30, 0)
s = 187: (0, 11, 19, 45, 16, 41, 45, 66, 41, 49, 47, 0)
s = 188: (0, 12, 18, 56, 19, 44, 43, 97, 45, 70, 41, 0)
s = 189: (0, 12, 27, 41, 16, 31, 66, 82, 60, 47, 29, 0)
s = 190: (0, 8, 22, 53, 17, 36, 39, 43, 37, 46, 36, 0)
s = 191: (0, 8, 14, 27, 20, 34, 63, 73, 32, 73, 34, 0)
s = 192: (0, 13, 28, 51, 20, 46, 45, 76, 37, 41, 35, 0)
s = 193: (0, 13, 14, 35, 20, 46, 68, 64, 28, 61, 33, 0)
s = 194: (0, 10, 30, 34, 20, 42, 42, 74, 49, 64, 49, 0)
s = 195: (0, 15, 32, 53, 10, 40, 42, 74, 37, 44, 52, 0)
s = 196: (0, 9, 27, 69, 16, 30, 50, 77, 39, 57, 37, 0)
s = 197: (0, 14, 25, 41, 13, 32, 60, 70, 44, 81, 63, 0)
s = 198: (0, 10, 17, 42, 14, 46, 46, 78, 48, 76, 31, 0)
s = 199: (0, 12, 23, 36, 12, 29, 67, 66, 78, 44, 34, 0)
s = 200: (0, 16, 29, 32, 24, 43, 57, 61, 53, 36, 23, 0)
------------------------------------------------------------------------
RESOURCE k = 2
s = 1: (0, 11, 10, 12, 7, 50, 19, 18, 30, 13, 17, 0)
s = 2: (0, 9, 8, 23, 5, 43, 18, 22, 32, 16, 33, 0)
s = 3: (0, 12, 9, 20, 9, 40, 31, 20, 29, 14, 26, 0)
s = 4: (0, 6, 6, 26, 13, 37, 36, 19, 36, 19, 23, 0)
s = 5: (0, 9, 8, 21, 9, 47, 17, 16, 29, 9, 14, 0)
s = 6: (0, 10, 5, 17, 10, 48, 20, 19, 38, 16, 15, 0)
s = 7: (0, 17, 9, 12, 8, 44, 39, 24, 24, 12, 13, 0)
s = 8: (0, 8, 6, 11, 9, 35, 23, 23, 22, 11, 19, 0)
s = 9: (0, 13, 9, 23, 6, 44, 20, 16, 16, 20, 19, 0)
s = 10: (0, 9, 6, 19, 5, 39, 18, 33, 28, 21, 14, 0)
s = 11: (0, 7, 11, 28, 8, 25, 35, 16, 20, 12, 27, 0)
s = 12: (0, 12, 10, 16, 7, 41, 15, 19, 23, 13, 15, 0)
s = 13: (0, 11, 10, 13, 9, 30, 28, 34, 35, 16, 20, 0)
s = 14: (0, 14, 5, 16, 11, 29, 29, 31, 29, 18, 19, 0)
s = 15: (0, 11, 8, 18, 8, 26, 34, 23, 40, 14, 24, 0)
s = 16: (0, 8, 6, 13, 5, 39, 22, 25, 19, 13, 15, 0)
s = 17: (0, 13, 5, 20, 12, 47, 14, 22, 22, 20, 17, 0)
s = 18: (0, 10, 6, 30, 6, 31, 18, 26, 27, 16, 15, 0)
s = 19: (0, 13, 8, 20, 9, 29, 17, 14, 33, 14, 17, 0)
s = 20: (0, 14, 9, 17, 14, 22, 24, 32, 30, 14, 16, 0)
s = 21: (0, 11, 13, 20, 7, 44, 27, 26, 27, 21, 24, 0)
s = 22: (0, 13, 9, 20, 8, 40, 16, 21, 23, 16, 15, 0)
s = 23: (0, 14, 7, 27, 12, 40, 23, 15, 18, 17, 16, 0)
s = 24: (0, 12, 12, 13, 10, 31, 17, 24, 23, 12, 21, 0)
s = 25: (0, 18, 9, 10, 8, 47, 25, 18, 28, 14, 14, 0)
s = 26: (0, 10, 7, 20, 7, 38, 21, 19, 19, 14, 20, 0)
s = 27: (0, 8, 12, 17, 11, 42, 25, 13, 22, 10, 21, 0)
s = 28: (0, 7, 8, 27, 6, 32, 30, 27, 24, 23, 25, 0)
s = 29: (0, 12, 5, 17, 8, 44, 20, 16, 23, 14, 19, 0)
s = 30: (0, 14, 6, 26, 10, 45, 32, 35, 33, 15, 21, 0)
s = 31: (0, 13, 7, 24, 9, 46, 29, 20, 22, 9, 13, 0)
s = 32: (0, 8, 8, 20, 6, 53, 15, 24, 22, 18, 27, 0)
s = 33: (0, 16, 10, 17, 7, 46, 27, 17, 32, 22, 25, 0)
s = 34: (0, 7, 11, 22, 10, 34, 21, 28, 33, 28, 19, 0)
s = 35: (0, 8, 6, 23, 8, 53, 29, 18, 20, 15, 22, 0)
s = 36: (0, 12, 7, 24, 12, 45, 28, 16, 32, 22, 16, 0)
s = 37: (0, 9, 9, 14, 7, 43, 38, 19, 45, 22, 23, 0)
s = 38: (0, 17, 7, 29, 13, 35, 18, 13, 33, 11, 15, 0)
s = 39: (0, 8, 10, 15, 12, 51, 23, 27, 21, 14, 15, 0)
s = 40: (0, 8, 10, 15, 8, 53, 25, 23, 33, 17, 24, 0)
s = 41: (0, 12, 9, 18, 8, 44, 26, 16, 27, 14, 22, 0)
s = 42: (0, 11, 7, 32, 8, 44, 24, 18, 17, 32, 22, 0)
s = 43: (0, 9, 10, 19, 7, 24, 42, 32, 42, 16, 16, 0)
s = 44: (0, 12, 10, 18, 9, 39, 31, 20, 25, 9, 16, 0)
s = 45: (0, 11, 6, 16, 10, 31, 20, 19, 23, 10, 30, 0)
s = 46: (0, 6, 9, 24, 8, 52, 17, 12, 30, 18, 28, 0)
s = 47: (0, 9, 9, 27, 8, 40, 18, 31, 25, 11, 17, 0)
s = 48: (0, 14, 9, 19, 9, 31, 16, 13, 26, 15, 28, 0)
s = 49: (0, 10, 7, 16, 13, 61, 18, 16, 27, 18, 24, 0)
s = 50: (0, 13, 7, 19, 9, 42, 17, 18, 29, 15, 19, 0)
s = 51: (0, 8, 13, 23, 7, 26, 19, 26, 32, 24, 22, 0)
s = 52: (0, 12, 8, 18, 6, 22, 26, 13, 43, 17, 19, 0)
s = 53: (0, 8, 6, 18, 9, 37, 23, 15, 23, 9, 25, 0)
s = 54: (0, 12, 10, 13, 6, 51, 30, 17, 35, 15, 18, 0)
s = 55: (0, 8, 8, 20, 11, 37, 26, 23, 27, 22, 24, 0)
s = 56: (0, 12, 9, 25, 10, 39, 25, 14, 27, 15, 29, 0)
s = 57: (0, 9, 8, 18, 7, 57, 17, 17, 22, 15, 21, 0)
s = 58: (0, 14, 6, 11, 7, 43, 26, 24, 27, 18, 14, 0)
s = 59: (0, 7, 5, 23, 9, 35, 18, 23, 21, 11, 35, 0)
s = 60: (0, 8, 7, 25, 8, 36, 31, 15, 30, 15, 32, 0)
s = 61: (0, 11, 7, 12, 5, 56, 18, 18, 24, 13, 14, 0)
s = 62: (0, 11, 6, 22, 10, 41, 18, 15, 26, 11, 14, 0)
s = 63: (0, 8, 8, 14, 9, 45, 27, 15, 26, 19, 37, 0)
s = 64: (0, 9, 6, 22, 8, 36, 18, 27, 19, 11, 24, 0)
s = 65: (0, 7, 10, 14, 10, 48, 23, 20, 23, 14, 20, 0)
s = 66: (0, 9, 11, 15, 7, 27, 16, 13, 18, 13, 22, 0)
s = 67: (0, 9, 9, 20, 5, 43, 17, 19, 38, 13, 22, 0)
s = 68: (0, 9, 7, 28, 7, 38, 16, 19, 40, 18, 23, 0)
s = 69: (0, 8, 11, 23, 9, 48, 28, 16, 34, 11, 34, 0)
s = 70: (0, 9, 9, 16, 7, 49, 25, 19, 40, 17, 30, 0)
s = 71: (0, 7, 9, 13, 6, 63, 31, 14, 22, 15, 14, 0)
s = 72: (0, 9, 9, 23, 11, 38, 39, 18, 23, 17, 33, 0)
s = 73: (0, 9, 7, 12, 9, 32, 24, 27, 26, 24, 32, 0)
s = 74: (0, 14, 9, 26, 7, 38, 35, 23, 33, 14, 20, 0)
s = 75: (0, 9, 8, 22, 6, 40, 24, 27, 31, 17, 28, 0)
s = 76: (0, 11, 7, 15, 9, 62, 17, 17, 23, 27, 19, 0)
s = 77: (0, 8, 6, 27, 7, 50, 24, 27, 26, 13, 27, 0)
s = 78: (0, 9, 9, 22, 10, 31, 16, 24, 29, 18, 23, 0)
s = 79: (0, 8, 7, 13, 9, 41, 24, 21, 30, 9, 17, 0)
s = 80: (0, 9, 7, 10, 10, 59, 33, 17, 31, 18, 13, 0)
s = 81: (0, 15, 6, 18, 7, 32, 27, 15, 50, 13, 17, 0)
s = 82: (0, 11, 6, 29, 12, 37, 17, 21, 34, 15, 24, 0)
s = 83: (0, 10, 7, 17, 6, 25, 14, 29, 17, 20, 18, 0)
s = 84: (0, 10, 13, 16, 8, 35, 18, 22, 25, 15, 18, 0)
s = 85: (0, 7, 8, 26, 7, 41, 19, 13, 20, 9, 20, 0)
s = 86: (0, 7, 8, 18, 13, 39, 20, 28, 37, 14, 29, 0)
s = 87: (0, 8, 5, 18, 8, 32, 26, 14, 25, 15, 32, 0)
s = 88: (0, 9, 6, 16, 8, 49, 24, 29, 31, 12, 17, 0)
s = 89: (0, 7, 12, 23, 8, 32, 22, 25, 24, 14, 13, 0)
s = 90: (0, 12, 10, 19, 8, 41, 22, 21, 21, 17, 18, 0)
s = 91: (0, 17, 7, 24, 6, 57, 28, 18, 23, 9, 16, 0)
s = 92: (0, 7, 10, 21, 6, 42, 21, 30, 41, 12, 14, 0)
s = 93: (0, 8, 12, 14, 7, 27, 32, 24, 31, 16, 18, 0)
s = 94: (0, 12, 8, 18, 10, 25, 30, 25, 18, 15, 17, 0)
s = 95: (0, 9, 9, 24, 5, 50, 22, 37, 28, 11, 26, 0)
s = 96: (0, 12, 9, 20, 6, 39, 22, 15, 16, 13, 25, 0)
s = 97: (0, 11, 8, 25, 5, 26, 25, 16, 36, 19, 24, 0)
s = 98: (0, 9, 13, 14, 8, 64, 22, 23, 30, 13, 31, 0)
s = 99: (0, 16, 11, 17, 11, 38, 16, 27, 29, 15, 25, 0)
s = 100: (0, 9, 9, 20, 9, 44, 19, 19, 21, 10, 17, 0)
s = 101: (0, 12, 11, 21, 10, 45, 35, 26, 22, 16, 18, 0)
s = 102: (0, 10, 10, 19, 7, 44, 23, 12, 22, 19, 21, 0)
s = 103: (0, 8, 10, 22, 5, 22, 33, 16, 30, 15, 15, 0)
s = 104: (0, 15, 9, 24, 10, 49, 31, 23, 44, 22, 16, 0)
s = 105: (0, 8, 7, 28, 7, 45, 25, 17, 37, 10, 19, 0)
s = 106: (0, 12, 9, 27, 7, 54, 33, 19, 27, 10, 16, 0)
s = 107: (0, 11, 8, 24, 13, 51, 31, 16, 41, 11, 12, 0)
s = 108: (0, 9, 6, 10, 12, 55, 16, 18, 28, 18, 12, 0)
s = 109: (0, 6, 10, 15, 6, 53, 20, 21, 31, 16, 20, 0)
s = 110: (0, 10, 8, 18, 11, 37, 30, 17, 36, 13, 19, 0)
s = 111: (0, 11, 7, 28, 9, 45, 30, 35, 36, 10, 26, 0)
s = 112: (0, 12, 10, 16, 9, 44, 17, 17, 28, 19, 16, 0)
s = 113: (0, 10, 7, 17, 12, 27, 23, 20, 31, 16, 20, 0)
s = 114: (0, 9, 6, 23, 8, 29, 30, 26, 29, 17, 13, 0)
s = 115: (0, 11, 10, 27, 11, 35, 14, 19, 22, 15, 26, 0)
s = 116: (0, 9, 12, 25, 5, 71, 15, 12, 21, 15, 18, 0)
s = 117: (0, 10, 5, 14, 10, 35, 16, 13, 25, 20, 31, 0)
s = 118: (0, 10, 9, 19, 7, 50, 23, 24, 16, 24, 17, 0)
s = 119: (0, 12, 14, 16, 8, 29, 33, 20, 16, 14, 19, 0)
s = 120: (0, 6, 7, 27, 9, 31, 26, 11, 24, 24, 15, 0)
s = 121: (0, 14, 9, 24, 7, 47, 35, 19, 32, 20, 14, 0)
s = 122: (0, 11, 8, 21, 9, 32, 26, 16, 25, 17, 16, 0)
s = 123: (0, 15, 10, 13, 6, 39, 19, 24, 19, 23, 22, 0)
s = 124: (0, 16, 11, 13, 9, 38, 16, 23, 28, 11, 17, 0)
s = 125: (0, 14, 6, 16, 17, 35, 21, 17, 17, 16, 20, 0)
s = 126: (0, 16, 9, 22, 6, 40, 23, 19, 25, 23, 16, 0)
s = 127: (0, 6, 14, 14, 7, 43, 30, 29, 23, 14, 26, 0)
s = 128: (0, 8, 6, 16, 8, 28, 29, 16, 41, 10, 20, 0)
s = 129: (0, 13, 13, 18, 13, 35, 26, 26, 21, 14, 23, 0)
s = 130: (0, 8, 8, 11, 6, 34, 29, 17, 38, 15, 19, 0)
s = 131: (0, 9, 7, 10, 10, 64, 25, 17, 22, 16, 23, 0)
s = 132: (0, 7, 6, 25, 6, 42, 35, 27, 34, 24, 21, 0)
s = 133: (0, 8, 8, 24, 9, 39, 13, 29, 37, 12, 18, 0)
s = 134: (0, 13, 7, 19, 6, 36, 26, 11, 32, 9, 17, 0)
s = 135: (0, 9, 9, 14, 10, 47, 17, 27, 25, 16, 18, 0)
s = 136: (0, 13, 5, 19, 8, 33, 29, 22, 23, 17, 13, 0)
s = 137: (0, 8, 10, 11, 8, 48, 17, 20, 22, 19, 26, 0)
s = 138: (0, 10, 7, 21, 9, 44, 38, 13, 22, 16, 14, 0)
s = 139: (0, 9, 7, 17, 9, 24, 19, 22, 19, 18, 22, 0)
s = 140: (0, 11, 7, 12, 10, 24, 19, 15, 20, 18, 22, 0)
s = 141: (0, 18, 11, 30, 6, 44, 16, 21, 17, 10, 15, 0)
s = 142: (0, 14, 7, 20, 5, 68, 19, 16, 21, 10, 18, 0)
s = 143: (0, 9, 10, 24, 6, 47, 35, 26, 39, 16, 16, 0)
s = 144: (0, 8, 9, 21, 5, 44, 28, 31, 21, 19, 26, 0)
s = 145: (0, 8, 7, 11, 7, 64, 19, 11, 42, 11, 31, 0)
s = 146: (0, 8, 8, 14, 10, 46, 24, 23, 22, 12, 36, 0)
s = 147: (0, 10, 5, 14, 9, 25, 21, 21, 31, 26, 16, 0)
s = 148: (0, 15, 10, 24, 5, 38, 23, 21, 32, 13, 15, 0)
s = 149: (0, 8, 9, 17, 7, 45, 21, 17, 25, 10, 29, 0)
s = 150: (0, 8, 6, 14, 10, 33, 22, 20, 21, 12, 24, 0)
s = 151: (0, 12, 9, 15, 7, 46, 25, 17, 30, 10, 14, 0)
s = 152: (0, 7, 7, 23, 5, 28, 34, 25, 15, 18, 18, 0)
s = 153: (0, 14, 6, 19, 5, 34, 14, 14, 24, 17, 15, 0)
s = 154: (0, 9, 9, 37, 10, 26, 27, 17, 27, 20, 20, 0)
s = 155: (0, 12, 10, 19, 9, 24, 27, 13, 39, 18, 21, 0)
s = 156: (0, 13, 12, 16, 6, 55, 17, 23, 28, 10, 22, 0)
s = 157: (0, 13, 6, 25, 7, 61, 28, 25, 14, 19, 22, 0)
s = 158: (0, 7, 6, 16, 10, 37, 26, 15, 29, 17, 26, 0)
s = 159: (0, 8, 8, 19, 7, 31, 26, 34, 20, 13, 18, 0)
s = 160: (0, 9, 12, 24, 7, 56, 23, 24, 20, 12, 16, 0)
s = 161: (0, 13, 7, 18, 9, 32, 21, 28, 25, 14, 16, 0)
s = 162: (0, 10, 9, 22, 10, 49, 17, 13, 43, 12, 20, 0)
s = 163: (0, 9, 7, 14, 6, 51, 22, 12, 32, 9, 23, 0)
s = 164: (0, 7, 6, 15, 9, 28, 44, 29, 23, 20, 20, 0)
s = 165: (0, 10, 8, 23, 15, 51, 20, 25, 16, 14, 24, 0)
s = 166: (0, 13, 7, 15, 10, 47, 23, 18, 40, 15, 22, 0)
s = 167: (0, 9, 6, 20, 8, 42, 17, 24, 34, 13, 18, 0)
s = 168: (0, 15, 8, 22, 10, 38, 22, 16, 29, 12, 21, 0)
s = 169: (0, 9, 7, 15, 11, 36, 23, 24, 20, 14, 23, 0)
s = 170: (0, 9, 7, 35, 7, 37, 19, 25, 27, 15, 19, 0)
s = 171: (0, 15, 11, 25, 8, 44, 18, 19, 29, 12, 19, 0)
s = 172: (0, 9, 11, 29, 7, 54, 20, 16, 22, 19, 29, 0)
s = 173: (0, 13, 10, 19, 6, 50, 17, 26, 28, 20, 29, 0)
s = 174: (0, 12, 8, 29, 8, 32, 24, 14, 20, 10, 14, 0)
s = 175: (0, 8, 6, 15, 8, 49, 19, 23, 26, 14, 21, 0)
s = 176: (0, 19, 7, 18, 8, 48, 19, 32, 35, 21, 35, 0)
s = 177: (0, 15, 11, 20, 7, 40, 16, 14, 34, 18, 17, 0)
s = 178: (0, 10, 6, 19, 9, 29, 17, 16, 28, 22, 27, 0)
s = 179: (0, 6, 10, 27, 5, 42, 35, 15, 39, 16, 23, 0)
s = 180: (0, 14, 15, 19, 9, 39, 14, 14, 15, 14, 25, 0)
s = 181: (0, 9, 10, 22, 9, 35, 27, 12, 32, 18, 24, 0)
s = 182: (0, 9, 10, 13, 8, 52, 26, 28, 32, 17, 22, 0)
s = 183: (0, 6, 9, 20, 8, 51, 35, 14, 17, 18, 20, 0)
s = 184: (0, 8, 8, 16, 13, 39, 28, 27, 16, 22, 27, 0)
s = 185: (0, 7, 10, 26, 9, 50, 20, 24, 20, 14, 25, 0)
s = 186: (0, 9, 7, 23, 10, 24, 30, 19, 23, 17, 17, 0)
s = 187: (0, 10, 7, 17, 9, 47, 24, 20, 25, 14, 25, 0)
s = 188: (0, 11, 7, 21, 10, 51, 23, 29, 27, 19, 22, 0)
s = 189: (0, 11, 10, 16, 9, 35, 36, 25, 36, 13, 16, 0)
s = 190: (0, 7, 8, 20, 9, 41, 21, 13, 22, 13, 20, 0)
s = 191: (0, 8, 5, 10, 11, 39, 34, 22, 19, 20, 19, 0)
s = 192: (0, 12, 10, 20, 11, 52, 24, 23, 23, 12, 19, 0)
s = 193: (0, 12, 5, 14, 11, 53, 36, 19, 17, 17, 18, 0)
s = 194: (0, 9, 11, 13, 11, 48, 23, 22, 29, 18, 27, 0)
s = 195: (0, 14, 12, 20, 6, 46, 23, 22, 22, 12, 28, 0)
s = 196: (0, 8, 10, 26, 9, 34, 27, 23, 24, 16, 20, 0)
s = 197: (0, 13, 10, 16, 7, 36, 32, 21, 27, 22, 34, 0)
s = 198: (0, 9, 7, 16, 8, 52, 25, 23, 29, 21, 17, 0)
s = 199: (0, 11, 9, 14, 7, 33, 36, 20, 47, 12, 19, 0)
s = 200: (0, 14, 11, 12, 13, 49, 31, 18, 32, 10, 13, 0)
************************************************************************
ES/LS-VALUES:
jobnr.   ES(i)    LS(i)
------------------------------------------------------------------------
  0        0        0
  1        0       55
  2        0       73
  3        0       70
  4        1       61
  5        1       57
  6        9       66
  7        3       64
  8       14       77
  9       14       72
 10       10       77
 11       24       83
************************************************************************
BIG-M-VALUES:
M1 = 36, M2 = 173
************************************************************************
